7749.0, 6793.0, 6793.0, 5113.0, 5111.0, 5109.0, 4151.0, 4151.0, 3193.0, 3191.0, 3182.0, 2228.0, 2228.0, 2226.0, 2223.0, 2223.0, 2218.0, 1259.0, 1257.0, 1253.0, 1252.0, 1244.0, 1241.0, 1241.0, 1239.0, 1230.0, 1230.0, 1226.0, 1226.0, 1224.0, 1223.0, 1218.0, 1216.0, 1216.0, 1213.0, 1213.0, 1209.0, 1204.0, 1202.0, 1202.0, 1198.0, 1198.0, 1197.0, 1196.0, 1186.0, 1184.0, 1181.0, 226, 226, 226, 221, 218, 214, 214, 210, 210, 208, 206, 206, 204, 198, 197, 194, 194, 192, 192, 189, 181, 181, 181, 181, 179, 178, 177, 175, 175, 170, 170, 170, 168, 168, 168, 168, 166, 164, 164, 164, 162, 162, 162, 160, 160, 159, 159, 158, 155, 155, 153, 150, 149, 
penalties info:
(0, 0, 0)
20
0
17
0
0
